345 5
10 10 10 10 10 

0 0 0 0 0 0 5 2 14 26 38 50 
0 0 0 0 0 0 1 3 
10 0 0 0 0 1 2 7 4 
3 0 0 0 0 5 3 6 5 51 
8 0 0 0 0 8 4 12 11 9 8 
10 0 0 0 0 3 4 12 11 9 8 
7 0 0 0 0 3 2 9 8 
8 0 0 0 0 7 1 10 
5 0 0 0 0 7 1 10 
6 0 0 0 0 5 1 13 
5 0 0 0 0 5 1 13 
10 0 0 0 0 6 1 13 
0 0 0 0 0 0 1 62 
0 0 0 0 0 0 4 15 17 18 24 
4 1 0 0 0 0 1 16 
9 3 0 0 0 0 3 23 22 19 
10 6 0 0 0 0 2 23 20 
4 4 0 0 0 0 2 22 21 
4 6 0 0 0 0 1 20 
10 7 0 0 0 0 1 21 
3 8 0 0 0 0 1 25 
8 2 0 0 0 0 1 25 
9 7 0 0 0 0 2 25 47 
3 6 0 0 0 0 1 25 
0 0 0 0 0 0 1 62 
0 0 0 0 0 0 4 27 31 32 36 
4 0 0 0 0 1 2 35 28 
3 0 0 0 0 8 2 34 29 
10 0 0 0 0 6 1 30 
1 0 0 0 0 5 1 33 
10 0 0 0 0 8 1 33 
1 0 0 0 0 4 2 33 339 
8 0 0 0 0 3 1 37 
4 0 0 0 0 2 1 37 
2 0 0 0 0 7 1 37 
4 0 0 0 0 6 1 37 
0 0 0 0 0 0 1 62 
0 0 0 0 0 0 3 39 41 43 
10 0 0 0 1 0 2 42 40 
10 0 0 0 5 0 3 47 44 275 
8 0 0 0 2 0 2 48 45 
3 0 0 0 6 0 1 44 
8 0 0 0 8 0 1 44 
1 0 0 0 3 0 1 45 
3 0 0 0 9 0 1 46 
7 0 0 0 3 0 1 49 
2 0 0 0 5 0 1 49 
10 0 0 0 8 0 1 49 
0 0 0 0 0 0 1 62 
0 0 0 0 0 0 3 51 52 56 
3 0 0 1 0 0 1 53 
8 0 0 8 0 0 1 53 
4 0 0 6 0 0 2 55 54 
2 0 0 6 0 0 4 60 58 57 213 
6 0 0 3 0 0 2 60 57 
4 0 0 4 0 0 2 60 59 
6 0 0 4 0 0 1 59 
1 0 0 6 0 0 1 59 
9 0 0 7 0 0 1 61 
9 0 0 5 0 0 1 61 
0 0 0 0 0 0 1 62 
0 0 0 0 0 0 5 63 75 87 99 111 
0 0 0 0 0 0 2 64 66 
1 0 0 1 0 0 1 65 
5 0 0 6 0 0 4 71 69 68 67 
1 0 0 7 0 0 2 71 67 
6 0 0 8 0 0 2 72 70 
1 0 0 4 0 0 2 72 70 
9 0 0 5 0 0 2 73 72 
8 0 0 4 0 0 1 73 
6 0 0 8 0 0 2 72 300 
8 0 0 5 0 0 1 74 
2 0 0 2 0 0 1 74 
0 0 0 0 0 0 1 123 
0 0 0 0 0 0 4 76 78 82 85 
8 0 0 1 0 0 2 81 77 
3 0 0 4 0 0 2 84 79 
4 0 0 9 0 0 1 79 
7 0 0 5 0 0 1 80 
6 0 0 6 0 0 1 83 
1 0 0 6 0 0 1 84 
8 0 0 2 0 0 1 84 
6 0 0 7 0 0 1 86 
8 0 0 7 0 0 2 86 107 
10 0 0 3 0 0 1 86 
0 0 0 0 0 0 1 123 
0 0 0 0 0 0 4 88 90 92 97 
3 0 0 0 0 1 2 96 89 
1 0 0 0 0 2 2 95 91 
10 0 0 0 0 6 2 96 95 
3 0 0 0 0 7 1 93 
4 0 0 0 0 8 1 93 
3 0 0 0 0 6 1 94 
1 0 0 0 0 6 2 98 255 
10 0 0 0 0 4 1 98 
10 0 0 0 0 4 1 98 
5 0 0 0 0 6 1 98 
0 0 0 0 0 0 1 123 
0 0 0 0 0 0 4 100 102 103 106 
3 0 1 0 0 0 1 101 
5 0 8 0 0 0 3 109 108 104 
5 0 6 0 0 0 2 109 104 
4 0 8 0 0 0 3 108 104 242 
4 0 3 0 0 0 1 105 
2 0 5 0 0 0 1 107 
5 0 5 0 0 0 1 108 
7 0 2 0 0 0 1 110 
9 0 5 0 0 0 1 110 
4 0 7 0 0 0 1 110 
0 0 0 0 0 0 1 123 
0 0 0 0 0 0 4 112 115 116 155 
5 0 0 1 0 0 2 120 113 
10 0 0 9 0 0 2 121 114 
6 0 0 3 0 0 2 119 117 
4 0 0 7 0 0 2 119 117 
10 0 0 8 0 0 2 120 118 
5 0 0 6 0 0 1 118 
8 0 0 6 0 0 1 122 
3 0 0 3 0 0 1 122 
7 0 0 3 0 0 1 122 
10 0 0 4 0 0 1 122 
0 0 0 0 0 0 1 123 
0 0 0 0 0 0 5 124 136 148 160 172 
0 0 0 0 0 0 5 125 127 128 130 246 
3 0 0 0 0 1 1 126 
4 0 0 0 0 3 2 133 129 
5 0 0 0 0 7 2 133 129 
9 0 0 0 0 4 2 134 133 
3 0 0 0 0 5 1 131 
1 0 0 0 0 7 1 132 
2 0 0 0 0 3 1 134 
5 0 0 0 0 8 1 133 
3 0 0 0 0 7 1 135 
4 0 0 0 0 5 1 135 
0 0 0 0 0 0 1 184 
0 0 0 0 0 0 3 137 139 141 
7 0 0 1 0 0 1 138 
7 0 0 5 0 0 2 142 140 
4 0 0 4 0 0 1 140 
6 0 0 7 0 0 4 146 144 143 329 
6 0 0 6 0 0 3 146 144 143 
2 0 0 6 0 0 2 146 143 
3 0 0 6 0 0 1 145 
7 0 0 4 0 0 1 145 
3 0 0 4 0 0 1 147 
5 0 0 7 0 0 1 147 
0 0 0 0 0 0 1 184 
0 0 0 0 0 0 4 149 153 157 158 
6 0 1 0 0 0 2 156 150 
2 0 3 0 0 0 1 151 
9 0 9 0 0 0 2 155 152 
7 0 4 0 0 0 1 154 
6 0 7 0 0 0 1 156 
1 0 6 0 0 0 2 159 200 
10 0 5 0 0 0 1 159 
2 0 4 0 0 0 1 159 
6 0 4 0 0 0 1 159 
8 0 7 0 0 0 1 159 
0 0 0 0 0 0 1 184 
0 0 0 0 0 0 2 161 167 
2 0 0 0 0 1 3 166 164 162 
7 0 0 0 0 4 2 170 163 
9 0 0 0 0 7 2 169 165 
9 0 0 0 0 6 2 169 168 
3 0 0 0 0 6 1 168 
2 0 0 0 0 6 1 168 
2 0 0 0 0 5 2 169 299 
6 0 0 0 0 5 1 171 
3 0 0 0 0 4 1 171 
2 0 0 0 0 6 1 171 
0 0 0 0 0 0 1 184 
0 0 0 0 0 0 4 173 174 176 179 
6 0 0 0 0 1 3 182 175 322 
6 0 0 0 0 6 3 182 180 178 
6 0 0 0 0 3 1 177 
2 0 0 0 0 4 1 177 
3 0 0 0 0 6 2 180 178 
7 0 0 0 0 7 1 181 
6 0 0 0 0 5 1 180 
5 0 0 0 0 4 1 183 
3 0 0 0 0 6 1 183 
4 0 0 0 0 8 1 183 
0 0 0 0 0 0 1 184 
0 0 0 0 0 0 5 185 207 229 241 263 
0 0 0 0 0 0 4 186 203 204 205 
4 0 0 1 0 1 3 202 201 187 
10 0 0 6 0 8 1 188 
8 0 0 5 0 4 2 200 189 
6 0 0 7 0 5 3 199 190 329 
8 0 0 6 0 6 2 198 191 
6 0 0 6 0 3 2 197 192 
1 0 0 3 0 4 2 196 193 
9 0 0 3 0 4 1 194 
2 0 0 4 0 2 1 195 
6 0 0 9 0 4 1 206 
4 0 0 10 0 3 1 206 
6 0 0 4 0 8 1 206 
5 0 0 5 0 7 1 206 
5 0 0 5 0 4 1 206 
3 0 0 3 0 9 1 206 
9 0 0 3 0 5 1 206 
1 0 0 4 0 6 1 206 
7 0 0 2 0 4 1 206 
6 0 0 7 0 8 1 206 
6 0 0 7 0 5 1 206 
0 0 0 0 0 0 1 345 
0 0 0 0 0 0 1 208 
8 0 0 0 1 1 2 212 209 
1 0 0 0 5 6 1 210 
10 0 0 0 2 2 2 216 211 
4 0 0 0 4 4 2 227 213 
2 0 0 0 5 7 5 227 226 220 219 214 
8 0 0 0 4 4 4 226 220 219 214 
1 0 0 0 1 5 3 225 224 215 
3 0 0 0 8 4 2 223 217 
1 0 0 0 8 7 3 224 222 221 
3 0 0 0 6 5 2 222 218 
7 0 0 0 3 4 2 221 294 
3 0 0 0 3 5 1 223 
7 0 0 0 7 7 1 221 
8 0 0 0 7 3 1 228 
9 0 0 0 7 5 1 228 
7 0 0 0 7 5 1 228 
9 0 0 0 4 5 1 228 
1 0 0 0 2 6 1 228 
6 0 0 0 8 7 1 228 
3 0 0 0 8 8 1 228 
0 0 0 0 0 0 1 345 
0 0 0 0 0 0 4 230 233 234 236 
4 0 0 0 0 1 1 231 
1 0 0 0 0 6 2 239 232 
10 0 0 0 0 6 2 238 235 
3 0 0 0 0 7 2 238 237 
3 0 0 0 0 3 1 235 
8 0 0 0 0 6 1 237 
10 0 0 0 0 4 2 238 328 
1 0 0 0 0 9 1 240 
1 0 0 0 0 4 1 240 
6 0 0 0 0 4 1 240 
0 0 0 0 0 0 5 285 297 309 321 333 
0 0 0 0 0 0 4 242 243 247 249 
8 0 1 0 1 0 2 250 244 
7 0 6 0 10 0 4 254 252 250 246 
7 0 8 0 2 0 1 245 
10 0 8 0 4 0 3 261 254 246 
10 0 4 0 5 0 1 248 
5 0 6 0 5 0 3 260 254 253 
9 0 9 0 5 0 2 253 251 
10 0 4 0 5 0 2 260 252 
1 0 4 0 5 0 1 251 
3 0 2 0 2 0 2 260 255 
5 0 6 0 5 0 1 253 
6 0 7 0 3 0 1 255 
8 0 4 0 9 0 1 255 
9 0 5 0 5 0 2 259 256 
10 0 4 0 7 0 1 257 
4 0 5 0 5 0 1 258 
8 0 4 0 5 0 1 262 
10 0 4 0 6 0 1 262 
9 0 6 0 4 0 1 262 
9 0 3 0 7 0 1 262 
0 0 0 0 0 0 1 345 
0 0 0 0 0 0 4 264 281 282 283 
5 0 0 1 2 0 1 265 
7 0 0 6 4 0 2 280 266 
5 0 0 5 3 0 4 279 278 277 267 
8 0 0 4 8 0 2 276 268 
1 0 0 5 6 0 2 275 269 
10 0 0 5 6 0 2 274 270 
2 0 0 5 5 0 1 271 
2 0 0 6 8 0 1 272 
10 0 0 4 7 0 1 273 
8 0 0 7 6 0 1 284 
1 0 0 6 4 0 1 284 
2 0 0 2 5 0 1 284 
5 0 0 3 10 0 1 284 
5 0 0 6 9 0 1 284 
5 0 0 6 3 0 1 284 
9 0 0 3 4 0 1 284 
9 0 0 5 3 0 1 284 
7 0 0 7 3 0 1 284 
7 0 0 10 1 0 1 284 
5 0 0 4 3 0 1 284 
0 0 0 0 0 0 1 345 
0 0 0 0 0 0 5 286 289 293 294 295 
6 1 0 0 0 0 1 287 
7 3 0 0 0 0 2 292 288 
3 3 0 0 0 0 1 290 
10 8 0 0 0 0 1 290 
5 10 0 0 0 0 1 291 
10 7 0 0 0 0 1 296 
6 5 0 0 0 0 1 296 
3 4 0 0 0 0 1 296 
1 5 0 0 0 0 1 296 
2 4 0 0 0 0 1 296 
0 0 0 0 0 0 1 345 
0 0 0 0 0 0 1 298 
5 0 0 0 1 0 3 303 301 299 
8 0 0 0 7 0 3 307 305 300 
7 0 0 0 3 0 2 306 302 
7 0 0 0 8 0 2 305 302 
7 0 0 0 6 0 1 304 
5 0 0 0 3 0 1 305 
8 0 0 0 5 0 1 308 
6 0 0 0 4 0 1 308 
2 0 0 0 8 0 1 308 
9 0 0 0 5 0 1 308 
0 0 0 0 0 0 1 345 
0 0 0 0 0 0 5 310 314 317 318 319 
3 0 0 0 0 1 1 311 
2 0 0 0 0 4 2 316 312 
6 0 0 0 0 5 1 313 
9 0 0 0 0 2 1 315 
9 0 0 0 0 9 1 316 
5 0 0 0 0 4 1 320 
1 0 0 0 0 5 1 320 
10 0 0 0 0 9 1 320 
9 0 0 0 0 5 1 320 
10 0 0 0 0 6 1 320 
0 0 0 0 0 0 1 345 
0 0 0 0 0 0 2 322 323 
10 0 0 0 1 0 1 324 
4 0 0 0 8 0 3 329 328 326 
7 0 0 0 6 0 1 325 
9 0 0 0 2 0 3 329 328 327 
1 0 0 0 4 0 1 327 
1 0 0 0 6 0 1 330 
4 0 0 0 8 0 1 331 
8 0 0 0 4 0 1 330 
4 0 0 0 5 0 1 332 
8 0 0 0 6 0 1 332 
0 0 0 0 0 0 1 345 
0 0 0 0 0 0 4 334 335 336 343 
9 1 0 0 0 0 1 337 
9 4 0 0 0 0 1 337 
2 8 0 0 0 0 3 342 340 339 
10 4 0 0 0 0 2 342 338 
4 8 0 0 0 0 1 339 
4 7 0 0 0 0 1 341 
8 3 0 0 0 0 1 341 
8 5 0 0 0 0 1 344 
1 5 0 0 0 0 1 344 
8 5 0 0 0 0 1 344 
0 0 0 0 0 0 1 345 
0 0 0 0 0 0 0 
